195 98
873 183
499 724
921 831
402 888
237 774
177 593
169 32
138 578
306 994
128 738
671 801
736 710
126 63
205 479
804 323
927 808
571 545
920 938
556 305
721 959
475 892
74 585
144 718
175 304
147 14
269 794
901 806
255 489
774 127
888 621
807 731
945 417
188 787
674 457
688 338
498 780
916 277
834 511
575 510
377 142
757 736
490 135
907 856
275 380
19 167
870 336
11 917
207 702
149 757
484 314
25 412
177 138
630 822
503 2
533 191
88 469
38 260
150 342
569 331
391 735
390 250
509 113
895 986
311 413
55 887
886 68
946 19
18 246
652 786
556 681
66 149
464 505
110 620
859 183
554 33
208 641
866 317
757 27
293 770
16 157
154 968
392 222
329 406
592 441
158 195
603 499
548 511
105 907
973 3
432 148
626 738
986 370
466 62
740 977
823 786
94 212
936 620
812 255
39 524
203 63
894 598
259 604
677 64
900 602
976 444
456 990
739 9
630 185
421 770
908 335
10 59
408 542
19 587
461 866
809 929
794 967
957 66
620 31
392 828
